#=======================================================
# FHI-aims file: geometry-20.in
# Created using the Atomic Simulation Environment (ASE)
# Tue Apr 18 15:48:51 2023
#=======================================================
lattice_vector 11.6830046400000001 0.0000000000000000 0.0000000000000000 
lattice_vector 0.0000000000000000 11.6830046400000001 0.0000000000000000 
lattice_vector 0.0000000000000000 0.0000000000000000 11.6830046400000001 
atom_frac 1.0951308207303767 0.1097813070799225 -0.2792994670932528 O
atom_frac 1.0381760440694303 0.1311146290874023 -0.3354481189352673 H
atom_frac 1.1298244729619484 0.1803698633128335 -0.2602064977010914 H
atom_frac 1.0628151971700321 0.5577480417742948 0.7783342753170387 O
atom_frac 1.1281938402106122 0.6035144003845915 0.8126100864066763 H
atom_frac 1.0922377370552856 0.4769032052699759 0.7723852132271343 H
atom_frac 0.0933884983888871 0.2167962085137030 1.0380191786006172 O
atom_frac 0.1559026694009770 0.1767697389188061 0.9931416204590329 H
atom_frac 0.0142535233984123 0.1858919838621240 1.0161032453377508 H
atom_frac 0.4283483790519149 0.9093265009608008 0.8436745070059306 O
atom_frac 0.4827072327517282 0.8508092598001399 0.8146877462851029 H
atom_frac 0.3603366736315873 0.8892718097901912 0.7970784782637902 H
atom_frac 0.9075843652151455 0.1164369545264513 0.5315054073281614 O
atom_frac 0.8612723421806328 0.1615038167099453 0.4794599448177571 H
atom_frac 0.9597625898058362 0.0744442552921900 0.4855242144284554 H
atom_frac 0.2121321078239339 0.9759272499955115 0.2369624566031158 O
atom_frac 0.2896899945081251 1.0073362180912393 0.2456072224927234 H
atom_frac 0.2164040054682372 0.9320611782278638 0.1622591883178436 H
atom_frac 0.1426229990780865 0.6745513310007554 0.5762782484010038 O
atom_frac 0.2208329226513086 0.6533402078662531 0.6020276723950698 H
atom_frac 0.0968809236045977 0.6757123970465186 0.6420709655731165 H
atom_frac 0.2108709810458485 -0.1034061739446506 0.9972257470574796 O
atom_frac 0.1273519857131547 -0.1034964024460064 0.9878396692993182 H
atom_frac 0.2288867181345226 -0.0312540704426186 0.9537611550584817 H
atom_frac 0.9539744460805075 0.3337793684211017 0.3142879758370103 O
atom_frac 0.9670280273037707 0.2507367770762094 0.2871876613412010 H
atom_frac 0.9870732782658554 0.3796361532558631 0.2532175678396375 H
atom_frac 1.0469315657140748 0.4617433122923077 0.1340917005747248 O
atom_frac 1.0436797096059358 0.5483589921778889 0.1352497160353777 H
atom_frac 0.9858374771646072 0.4400654213897496 0.0789217438845424 H
atom_frac -0.0089366223173904 0.9781230678343719 0.9327870163372630 O
atom_frac -0.0362710332707700 0.9313871410051927 0.8698779469114376 H
atom_frac 0.0226518817850953 1.0419482526200554 0.8933882722484308 H
atom_frac 0.4892562518061279 0.4372006446451261 0.1654159601532094 O
atom_frac 0.4734482156295711 0.3799650891861667 0.2221002430415880 H
atom_frac 0.5665679201510614 0.4178330215916100 0.1392235961655837 H
atom_frac 0.5308769457100891 0.5272904137098759 0.3942775648850551 O
atom_frac 0.5762298789945529 0.5480351533952657 0.3299598312921667 H
atom_frac 0.5113771109484041 0.4449619811158442 0.3790803604439894 H
atom_frac 0.8146025806936595 0.4782872559057719 0.4994832579301278 O
atom_frac 0.8897575067641161 0.4923170312119298 0.4686201314390645 H
atom_frac 0.7652934562217207 0.5214119952622051 0.4486355857511669 H
atom_frac 1.0181238847817491 0.3714748862754881 0.5548867983673077 O
atom_frac 0.9959919283229867 0.3466480485793936 0.4726853793323496 H
atom_frac 1.0994419993656699 0.3598165137765451 0.5570497838987420 H
atom_frac 0.3454163046536289 0.6129285727990603 0.6693055648739348 O
atom_frac 0.4264493555828974 0.6270176676057538 0.6494010670871393 H
atom_frac 0.3282837949810144 0.6346478177894485 0.7461304158139923 H
atom_frac 0.9838684306128976 0.1003595450082779 0.3030848560888699 O
atom_frac 1.0539149293704295 0.0747082772707005 0.2684467717544277 H
atom_frac 0.9242117325736166 0.0539450834284698 0.2636194253878170 H
atom_frac 0.0169386999404633 0.7027536034600086 0.1721735462736237 O
atom_frac -0.0056838049839206 0.7888751861353365 0.1700369229674465 H
atom_frac 0.1014227732087933 0.7010763662591509 0.1545574195714776 H
atom_frac 0.6459281300088571 1.0232101200295338 0.3447489848809989 O
atom_frac 0.5872324407465098 1.0662323352462522 0.3850412910560994 H
atom_frac 0.6145264905073254 0.9446130357780975 0.3442588926336334 H
atom_frac 0.5863936171474464 1.0774802482659975 0.7990474897217880 O
atom_frac 0.5626363399270207 1.1379912582145477 0.7454773834618627 H
atom_frac 0.5263638626783941 1.0189137620679742 0.7888205948705331 H
atom_frac 0.0230053764662375 0.5688099735274948 0.3789932852410474 O
atom_frac 0.0538168107754856 0.6178848782858996 0.4393165592374532 H
atom_frac 0.0074713211788984 0.6278601709089110 0.3180733385380218 H
atom_frac 0.2568657997211923 0.4556851823693190 0.2948272568690857 O
atom_frac 0.1819033095924543 0.4909324113732441 0.3070396024425442 H
atom_frac 0.2962265493031594 0.5100974983435426 0.3448922271420068 H
atom_frac 0.2240905889086423 0.9078796334364890 0.7278693608393535 O
atom_frac 0.1722469409204994 0.9705413101676214 0.7348691483529189 H
atom_frac 0.1760829678143482 0.8463961972713896 0.7091541230441556 H
atom_frac 0.4376869407799876 0.8900700607784745 1.0833735926685379 O
atom_frac 0.3824575284941426 0.8312433470025566 1.1039646561331846 H
atom_frac 0.4207119094322297 0.8932514024919535 1.0008675139925307 H
atom_frac 1.2842537799420064 0.1151141603929039 0.9313936222146361 O
atom_frac 1.2891971632393360 0.1405459246654892 0.8534623384348839 H
atom_frac 1.3506252780192340 0.1457217207781576 0.9699918402155150 H
atom_frac 0.7328930899063651 0.3373180488611019 1.2464143299355910 O
atom_frac 0.8188837439338721 0.3269028231764873 1.2666447567207333 H
atom_frac 0.7188327505448975 0.2659638163081308 1.2052325205615941 H
atom_frac 0.8726624934388455 1.3706805666388917 0.9809656516579112 O
atom_frac 0.8784741627903693 1.3964498827760459 0.9012291558928971 H
atom_frac 0.7928452470425450 1.3925015756905494 1.0060444048578243 H
atom_frac 0.3954480788428413 0.3760307930511958 0.8281591669384117 O
atom_frac 0.4336161395207663 0.4525018206275402 0.8111793508626047 H
atom_frac 0.3984732073169835 0.3669520668785766 0.9134811607846798 H
atom_frac 0.8715005098209052 0.1499594542658677 0.0263761548929762 O
atom_frac 0.8558244208657610 0.2340674059682647 0.0237465890452646 H
atom_frac 0.8652206783682318 0.1267413243105585 -0.0526633463701167 H
atom_frac 0.4900691976443485 0.0567221241812329 0.5184477244203165 O
atom_frac 0.4239427349915013 0.0033457078212716 0.5027831436348723 H
atom_frac 0.4528871059320234 0.1206036300949376 0.5597134180372969 H
atom_frac 0.3253412009258604 0.6714029602576619 0.4197019577662344 O
atom_frac 0.3990813145821022 0.6368519887877062 0.4315920617489372 H
atom_frac 0.3197628585380755 0.7505436041665391 0.4601450667574160 H
atom_frac 0.2655128929230657 0.7103855750929496 0.1812751723772319 O
atom_frac 0.2944650187179931 0.6415297726013742 0.1490235546118896 H
atom_frac 0.3052948911608067 0.7085612567213703 0.2588952006099691 H
atom_frac 0.5910567129587309 0.6643074550726191 0.5886193091505953 O
atom_frac 0.5859356527654345 0.6513206409203309 0.5070095675319359 H
atom_frac 0.6312570154042154 0.7407928976051490 0.5919991237801990 H
atom_frac 0.2194379741340238 0.2436678403989746 0.2179097071727261 O
atom_frac 0.1624111072851547 0.2285572814768650 0.1638999349057864 H
atom_frac 0.2185242408668597 0.3246706045988526 0.2455593101604726 H
atom_frac 0.4623637571370510 0.2974917161378445 0.4171415624807969 O
atom_frac 0.4565909758981316 0.2295293439171312 0.3674305302681108 H
atom_frac 0.5128346563765466 0.2802191140788591 0.4858815625703629 H
atom_frac 0.5190600728889208 0.6583032359387987 0.8502756316631918 O
atom_frac 0.5993046973573743 0.6673424893889284 0.8280216398167929 H
atom_frac 0.5249836381131490 0.6345980506261273 0.9308993735022604 H
atom_frac 0.9152058053107133 0.9165933507666568 1.1447411682274227 O
atom_frac 0.9557507827883565 0.9474727530365853 1.0758333654141219 H
atom_frac 0.8355855698778529 0.8998290066586844 1.1166059341734542 H
atom_frac 0.8865468558095172 0.6632589790703020 0.9357746749983317 O
atom_frac 0.8829410796159710 0.6743667303721964 1.0186158036140265 H
atom_frac 0.9519181462894634 0.6314402122842947 0.8983804546361970 H
atom_frac 0.6464668835396440 0.4104056206212378 0.9724890428529351 O
atom_frac 0.6501385982501844 0.4574134030301986 0.9032634519265244 H
atom_frac 0.5760597061613424 0.3638622812358996 0.9653642532491539 H
atom_frac 0.8222277501380844 1.1164664246850800 0.7861740060046746 O
atom_frac 0.7461193672863251 1.0987956014369948 0.8054512122491120 H
atom_frac 0.8425177737496816 1.0703639419251312 0.7162003626491755 H
atom_frac 0.5198245277766148 0.2216936276077692 0.9864321709282485 O
atom_frac 0.5467333076399429 0.1728600203654460 0.9265381597931129 H
atom_frac 0.5706642747682756 0.2009288254463965 1.0512329532037230 H
atom_frac 0.2822625507405431 0.3917162486036640 0.5763423260953185 O
atom_frac 0.3014467535125451 0.4662350823135512 0.6187594914795823 H
atom_frac 0.3328386129957062 0.3828037493615170 0.5129514054528357 H
atom_frac 1.3044148119074959 0.9085147055115781 0.5122305206924920 O
atom_frac 1.2796015349352801 0.9167089391826176 0.5944068725457597 H
atom_frac 1.2554571680800086 0.9589617435947538 0.4627168461006449 H
atom_frac 0.7215979184957338 0.8109104303154672 0.8448540580225260 O
atom_frac 0.7777098708744500 0.7521652178338946 0.8507312935553196 H
atom_frac 0.7322555039231757 0.8475692585190996 0.7709197922564550 H
atom_frac 0.6673044529407977 0.4830458237325497 0.7276276148085139 O
atom_frac 0.7479098219377237 0.4517965756795249 0.7244994229498141 H
atom_frac 0.6644728466015571 0.5543970142598522 0.6803131698490877 H
atom_frac -0.1340280089112419 0.6713386232122561 0.6674673553840170 O
atom_frac -0.0831685709233785 0.6217105020340042 0.7120470997262225 H
atom_frac -0.1717107843243996 0.6166811673884605 0.6133035046025626 H
atom_frac 0.2891640476143815 0.4946965911673215 1.0306940355713152 O
atom_frac 0.3459553081201207 0.4741370906448600 1.0895238067798971 H
atom_frac 0.2161864903616096 0.4610509338974293 1.0544552544147583 H
atom_frac 0.6680905983103332 0.1182447720058425 0.1408140029635390 O
atom_frac 0.7411661123845963 0.0921835395248118 0.1058118718679204 H
atom_frac 0.6550416794150995 0.0737850361754200 0.2132546606606500 H
atom_frac 0.1422894496085726 0.3361492913008036 0.8250087179628134 O
atom_frac 0.2246431017423614 0.3568398779648178 0.8168733492859419 H
atom_frac 0.1207567465281774 0.3371950462565254 0.9062617944830330 H
atom_frac 0.5267815052412750 0.8118291819834457 0.3295201883956455 O
atom_frac 0.5186748945774621 0.7548982502158794 0.2698734894964486 H
atom_frac 0.4538849348603871 0.8052005661105345 0.3720066844037477 H
atom_frac 0.2475005847468361 0.6819680206854732 0.8814934708439867 O
atom_frac 0.2718734715832485 0.7555433813471463 0.9109032391859087 H
atom_frac 0.2682244291225412 0.6288940333759895 0.9448124801908835 H
atom_frac 0.6864072674030881 0.8649884675557228 0.0820747726759441 O
atom_frac 0.6165385396953844 0.9051488710185088 0.0928266977047096 H
atom_frac 0.6891536139970239 0.8620957339618072 -0.0018718121471190 H
atom_frac 0.8448541513204432 0.8365959067187361 0.3986283266596392 O
atom_frac 0.9306277687141276 0.8309789184505537 0.4090473022357714 H
atom_frac 0.8299562525894879 0.9139985867539636 0.3605261206161774 H
atom_frac 0.7514983602711297 0.2625889053828194 0.4657952956184053 O
atom_frac 0.7708051702014903 0.3439566210768877 0.4900066572258076 H
atom_frac 0.7048612256649758 0.2732447746421506 0.3986328289261041 H
atom_frac 0.8657674503842361 0.3609780728461647 0.7246460607414430 O
atom_frac 0.8539592499896499 0.2843722306353548 0.7502288769098701 H
atom_frac 0.9229538755023553 0.3535892895100314 0.6603689203019952 H
atom_frac 0.9971159011711220 0.8840022389993676 0.6717467767777930 O
atom_frac 0.9765408609818030 0.9432175728383516 0.6128820796222846 H
atom_frac 0.9367614553990283 0.8238509515819211 0.6689046149347417 H
atom_frac 0.4077376091840703 0.1281106116208818 0.2439137428948244 O
atom_frac 0.4498347259066054 0.0799656405854171 0.1873120124002622 H
atom_frac 0.3550496261721933 0.1804855766966467 0.2098125392852707 H
atom_frac 0.3165599333357793 0.1824330020979945 0.6735525006176836 O
atom_frac 0.2585573953859185 0.1903224357531369 0.6133038504040174 H
atom_frac 0.3491459702099374 0.2580695611193389 0.6687995828785359 H
atom_frac 0.5904263417291598 0.2775828864174790 0.6272013712047966 O
atom_frac 0.6672953927714952 0.2691434992017602 0.5896217909916024 H
atom_frac 0.5962007047529513 0.3454959528287921 0.6816226591860705 H
atom_frac 0.7631025814605856 0.6098572627118293 1.2795444297623766 O
atom_frac 0.8220555187590853 0.6034763981742286 1.2216606318150021 H
atom_frac 0.7773237262019952 0.6837015661751891 1.3155572246695606 H
atom_frac 0.7017558575582318 0.8854200960070834 0.5842930119729884 O
atom_frac 0.6386193004199646 0.9333733689247254 0.5576546069059851 H
atom_frac 0.7520707815108768 0.8654714366354990 0.5164483303671785 H
atom_frac 0.5315109803808141 0.6732088441591170 1.1339241674734113 O
atom_frac 0.5701033240366837 0.5957285359770259 1.1254216886110899 H
atom_frac 0.5793691630340737 0.7277719030333278 1.0947907977549174 H
atom_frac 1.0785726273579568 0.8481467298295963 0.4436488403209262 O
atom_frac 1.1206132791538461 0.7979294040578245 0.4969041371535396 H
atom_frac 1.1261890417258278 0.8577453924558229 0.3803662659505714 H
atom_frac 1.2103157223431524 0.1510865495984259 0.4676397594925546 O
atom_frac 1.1250811837390489 0.1509477094584120 0.4783702782129512 H
atom_frac 1.2135020122700215 0.2057791359398108 0.4029364059210029 H
